[Vehicles]
1 12 0
2 8 1
3 6 1
4 12 0
5 11 1
6 10 0

[Requests]
2 1
3 2
4 1
5 1
6 2
7 2
8 1
9 2
10 1
11 2
12 2
13 2
14 1
15 2
16 1

[Fixed Lines]
32 34 30 60 90 120 150 180 210 240 270 300 330 360 390 420 450 480 510 540 570 |
34 32 30 60 90 120 150 180 210 240 270 300 330 360 390 420 450 480 510 540 570 |
33 34 30 60 90 120 150 180 210 240 270 300 330 360 390 420 450 480 510 540 570 |
34 33 30 60 90 120 150 180 210 240 270 300 330 360 390 420 450 480 510 540 570 |
32 33 30 60 90 120 150 180 210 240 270 300 330 360 390 420 450 480 510 540 570 |
33 32 30 60 90 120 150 180 210 240 270 300 330 360 390 420 450 480 510 540 570 |

[Nodes]
0 0 600 0
1 0 600 0
2 15 44 2
3 230 288 3
4 399 451 2
5 144 200 2
6 39 86 2
7 19 95 3
8 108 162 1
9 281 343 3
10 201 264 2
11 114 179 3
12 61 114 2
13 171 226 3
14 124 188 2
15 18 89 3
16 187 217 2
17 497 573 3
18 301 348 1
19 397 445 1
20 336 394 3
21 422 484 1
22 334 394 2
23 407 445 3
24 428 471 3
25 409 461 1
26 433 497 1
27 438 467 1
28 465 517 2
29 317 373 2
30 297 354 1
31 390 434 2
32 0 600 2
33 0 600 2
34 0 600 2

[Positions]
60 100
140 100
124 105
111 105
104 138
104 128
104 95
174 94
116 123
90 118
199 112
16 60
151 102
6 46
33 46
103 98
1 57
197 113
81 129
91 131
53 53
76 129
5 59
7 34
188 110
83 144
189 125
38 30
159 95
103 96
102 115
115 101
30 50
100 120
170 110
